=obj=                159
C0001                1
C0002                1
C0003                1
C0004                1
C0005                0
C0006                1
C0007                1
C0008                1
C0009                1
C0010                1
C0011                1
C0012                0
C0013                1
C0014                1
C0015                1
C0016                1
C0017                1
C0018                0
C0019                1
C0020                1
C0021                1
C0022                1
C0023                1
C0024                1
C0025                1
C0026                1
C0027                0
C0028                0
C0029                0
C0030                1
C0031                1
C0032                1
C0033                0
C0034                1
C0035                1
C0036                0
C0037                1
C0038                1
C0039                0
C0040                1
C0041                1
C0042                1
C0043                0
C0044                1
C0045                1
C0046                0
C0047                1
C0048                1
C0049                0
C0050                1
C0051                1
C0052                0
C0053                1
C0054                0
C0055                1
C0056                0
C0057                1
C0058                1
C0059                1
C0060                1
C0061                1
C0062                1
C0063                1
C0064                1
C0065                0
C0066                1
C0067                1
C0068                1
C0069                0
C0070                1
C0071                0
C0072                1
C0073                1
C0074                1
C0075                1
C0076                1
C0077                1
C0078                1
C0079                1
C0080                1
C0081                0
C0082                1
C0083                1
C0084                1
C0085                1
C0086                1
C0087                0
C0088                0
C0089                1
C0090                1
C0091                0
C0092                0
C0093                1
C0094                1
C0095                1
C0096                1
C0097                1
C0098                1
C0099                1
C0100                1
C0101                1
C0102                0
C0103                1
C0104                1
C0105                1
C0106                1
C0107                1
C0108                1
C0109                1
C0110                1
C0111                1
C0112                1
C0113                1
C0114                0
C0115                1
C0116                1
C0117                0
C0118                1
C0119                0
C0120                0
C0121                1
C0122                1
C0123                1
C0124                1
C0125                1
C0126                1
C0127                1
C0128                1
C0129                1
C0130                1
C0131                1
C0132                1
C0133                0
C0134                1
C0135                1
C0136                1
C0137                1
C0138                1
C0139                1
C0140                1
C0141                1
C0142                0
C0143                0
C0144                1
C0145                1
C0146                1
C0147                1
C0148                1
C0149                1
C0150                1
C0151                1
C0152                1
C0153                1
C0154                1
C0155                1
C0156                1
C0157                1
C0158                1
C0159                0
C0160                1
C0161                1
C0162                1
C0163                1
C0164                1
C0165                1
C0166                1
C0167                0
C0168                0
C0169                1
C0170                1
C0171                1
C0172                1
C0173                1
C0174                1
C0175                1
C0176                1
C0177                0
C0178                0
C0179                1
C0180                1
C0181                0
C0182                1
C0183                1
C0184                0
C0185                1
C0186                1
C0187                0
C0188                1
C0189                1
C0190                1
C0191                0
C0192                1
C0193                1
C0194                1
C0195                1
C0196                0
C0197                1
C0198                1
C0199                1
C0200                1
